(set-logic ALL)
(declare-fun var0 () String)
(assert (str.in_re var0 (re.++ (re.* (re.union (str.to_re "0") (str.to_re "11"))) (re.++ (re.* (re.+ (str.to_re "2"))) (re.++ (re.union (re.union (str.to_re "33") (str.to_re "44")) (re.union (str.to_re "555") (str.to_re "666"))) (re.++ (re.* (re.* (str.to_re "7"))) (re.++ (re.* (re.+ (str.to_re "888"))) (re.++ (re.+ (re.* (str.to_re "99"))) (re.++ (re.+ (re.union (str.to_re "aa") (str.to_re "b"))) (re.++ (re.+ (re.* (str.to_re "ccc"))) (re.++ (re.union (re.+ (str.to_re "dd")) (re.+ (str.to_re "e"))) (re.++ (re.* (re.+ (str.to_re "ff"))) (re.++ (re.+ (re.* (str.to_re "ggg"))) (re.++ (re.* (re.* (str.to_re "hh"))) (re.++ (re.union (re.union (str.to_re "i") (str.to_re "j")) (re.union (str.to_re "k") (str.to_re "lll"))) (re.++ (re.* (re.* (str.to_re "mmm"))) (re.++ (re.* (re.+ (str.to_re "nn"))) (re.++ (re.+ (re.* (str.to_re "ooo"))) (re.++ (re.union (re.+ (str.to_re "pp")) (re.+ (str.to_re "q"))) (re.++ (re.* (re.union (str.to_re "rrr") (str.to_re "sss"))) (re.++ (re.* (re.union (str.to_re "ttt") (str.to_re "u"))) (re.++ (re.+ (re.* (str.to_re "vv"))) (re.++ (re.union (re.* (str.to_re "w")) (re.* (str.to_re "xxx"))) (re.++ (re.union (re.+ (str.to_re "yy")) (re.+ (str.to_re "z"))) (re.++ (re.union (re.* (str.to_re "AAA")) (re.* (str.to_re "B"))) (re.++ (re.union (re.* (str.to_re "CC")) (re.* (str.to_re "DDD"))) (re.++ (re.* (re.+ (str.to_re "EEE"))) (re.++ (re.+ (re.union (str.to_re "FF") (str.to_re "GG"))) (re.++ (re.+ (re.+ (str.to_re "HH"))) (re.++ (re.+ (re.* (str.to_re "II"))) (re.++ (re.+ (re.union (str.to_re "J") (str.to_re "KK"))) (re.++ (re.+ (re.* (str.to_re "L"))) (re.++ (re.+ (re.+ (str.to_re "MM"))) (re.++ (re.* (re.union (str.to_re "NNN") (str.to_re "O"))) (re.++ (re.* (re.+ (str.to_re "P"))) (re.++ (re.+ (re.* (str.to_re "QQQ"))) (re.++ (re.+ (re.union (str.to_re "RR") (str.to_re "SSS"))) (re.++ (re.+ (re.* (str.to_re "T"))) (re.++ (re.* (re.* (str.to_re "UUU"))) (re.++ (re.+ (re.union (str.to_re "VV") (str.to_re "WW"))) (re.++ (re.union (re.union (str.to_re "XXX") (str.to_re "YY")) (re.union (str.to_re "ZZZ") (str.to_re "!"))) (re.++ (re.* (re.+ (str.to_re """"""))) (re.++ (re.* (re.+ (str.to_re "###"))) (re.++ (re.* (re.+ (str.to_re "$"))) (re.++ (re.+ (re.* (str.to_re "%"))) (re.++ (re.union (re.* (str.to_re "&&&")) (re.* (str.to_re "''"))) (re.++ (re.+ (re.union (str.to_re "(((") (str.to_re ")"))) (re.++ (re.+ (re.+ (str.to_re "*"))) (re.++ (re.union (re.+ (str.to_re "+")) (re.+ (str.to_re ",,"))) (re.++ (re.union (re.+ (str.to_re "--")) (re.+ (str.to_re "."))) (re.++ (re.union (re.union (str.to_re "//") (str.to_re "::")) (re.union (str.to_re ";;;") (str.to_re "<<<"))) (re.++ (re.* (re.* (str.to_re "=="))) (re.++ (re.union (re.* (str.to_re ">>>")) (re.* (str.to_re "???"))) (re.++ (re.+ (re.union (str.to_re "@") (str.to_re "[[["))) (re.++ (re.* (re.union (str.to_re "\\\\\\") (str.to_re "]]]"))) (re.++ (re.* (re.union (str.to_re "^") (str.to_re "___"))) (re.++ (re.* (re.* (str.to_re "```"))) (re.++ (re.union (re.+ (str.to_re "{{")) (re.+ (str.to_re "|"))) (re.++ (re.union (re.union (str.to_re "}}}") (str.to_re "~~~")) (re.union (str.to_re "00") (str.to_re "1"))) (re.++ (re.+ (re.+ (str.to_re "222"))) (re.++ (re.* (re.union (str.to_re "3") (str.to_re "44"))) (re.++ (re.* (re.* (str.to_re "55"))) (re.++ (re.union (re.* (str.to_re "6")) (re.* (str.to_re "777"))) (re.++ (re.union (re.* (str.to_re "88")) (re.* (str.to_re "9"))) (re.++ (re.+ (re.* (str.to_re "a"))) (re.++ (re.union (re.union (str.to_re "bb") (str.to_re "c")) (re.union (str.to_re "ddd") (str.to_re "ee"))) (re.++ (re.+ (re.* (str.to_re "fff"))) (re.++ (re.* (re.union (str.to_re "g") (str.to_re "hh"))) (re.++ (re.+ (re.* (str.to_re "iii"))) (re.++ (re.* (re.* (str.to_re "jjj"))) (re.++ (re.union (re.+ (str.to_re "k")) (re.+ (str.to_re "l"))) (re.++ (re.+ (re.union (str.to_re "mmm") (str.to_re "nn"))) (re.++ (re.union (re.* (str.to_re "oo")) (re.* (str.to_re "pp"))) (re.++ (re.* (re.union (str.to_re "q") (str.to_re "r"))) (re.++ (re.+ (re.* (str.to_re "ss"))) (re.++ (re.* (re.+ (str.to_re "tt"))) (re.++ (re.+ (re.+ (str.to_re "uu"))) (re.++ (re.union (re.union (str.to_re "v") (str.to_re "ww")) (re.union (str.to_re "xx") (str.to_re "y"))) (re.++ (re.union (re.union (str.to_re "zz") (str.to_re "AAA")) (re.union (str.to_re "B") (str.to_re "CCC"))) (re.++ (re.* (re.+ (str.to_re "DD"))) (re.++ (re.* (re.+ (str.to_re "EE"))) (re.++ (re.* (re.+ (str.to_re "F"))) (re.* (re.union (str.to_re "GGG") (str.to_re "H")))))))))))))))))))))))))))))))))))))))))))))))))))))))))))))))))))))))))))))))))))))
(assert (not (str.in_re var0 (re.++ (re.union (re.+ (str.to_re "000")) (re.+ (str.to_re "111"))) (re.++ (re.+ (re.union (str.to_re "2") (str.to_re "3"))) (re.++ (re.union (re.+ (str.to_re "44")) (re.+ (str.to_re "5"))) (re.++ (re.* (re.union (str.to_re "66") (str.to_re "77"))) (re.++ (re.* (re.+ (str.to_re "88"))) (re.++ (re.* (re.union (str.to_re "999") (str.to_re "aaa"))) (re.++ (re.* (re.union (str.to_re "b") (str.to_re "cc"))) (re.++ (re.* (re.union (str.to_re "d") (str.to_re "e"))) (re.++ (re.+ (re.union (str.to_re "ff") (str.to_re "ggg"))) (re.++ (re.union (re.* (str.to_re "hhh")) (re.* (str.to_re "i"))) (re.++ (re.+ (re.* (str.to_re "j"))) (re.++ (re.* (re.* (str.to_re "kkk"))) (re.++ (re.+ (re.+ (str.to_re "l"))) (re.++ (re.+ (re.* (str.to_re "mm"))) (re.++ (re.union (re.+ (str.to_re "n")) (re.+ (str.to_re "ooo"))) (re.++ (re.+ (re.+ (str.to_re "ppp"))) (re.++ (re.+ (re.union (str.to_re "q") (str.to_re "r"))) (re.++ (re.+ (re.union (str.to_re "s") (str.to_re "tt"))) (re.++ (re.+ (re.* (str.to_re "u"))) (re.++ (re.* (re.union (str.to_re "vv") (str.to_re "ww"))) (re.++ (re.union (re.* (str.to_re "xx")) (re.* (str.to_re "yy"))) (re.++ (re.* (re.union (str.to_re "zzz") (str.to_re "AA"))) (re.++ (re.union (re.+ (str.to_re "BB")) (re.+ (str.to_re "C"))) (re.++ (re.union (re.union (str.to_re "DD") (str.to_re "EEE")) (re.union (str.to_re "FFF") (str.to_re "GGG"))) (re.++ (re.* (re.+ (str.to_re "H"))) (re.++ (re.union (re.union (str.to_re "III") (str.to_re "J")) (re.union (str.to_re "K") (str.to_re "L"))) (re.++ (re.* (re.* (str.to_re "MMM"))) (re.++ (re.* (re.* (str.to_re "NNN"))) (re.++ (re.+ (re.union (str.to_re "OO") (str.to_re "PP"))) (re.++ (re.union (re.+ (str.to_re "QQQ")) (re.+ (str.to_re "RRR"))) (re.++ (re.* (re.* (str.to_re "SS"))) (re.++ (re.+ (re.union (str.to_re "TTT") (str.to_re "UUU"))) (re.++ (re.+ (re.+ (str.to_re "V"))) (re.++ (re.union (re.union (str.to_re "W") (str.to_re "X")) (re.union (str.to_re "YY") (str.to_re "ZZZ"))) (re.++ (re.union (re.union (str.to_re "!") (str.to_re """""""")) (re.union (str.to_re "###") (str.to_re "$$"))) (re.++ (re.* (re.* (str.to_re "%%%"))) (re.++ (re.* (re.union (str.to_re "&") (str.to_re "'''"))) (re.++ (re.+ (re.union (str.to_re "((") (str.to_re ")))"))) (re.++ (re.* (re.+ (str.to_re "*"))) (re.++ (re.union (re.union (str.to_re "+") (str.to_re ",")) (re.union (str.to_re "-") (str.to_re "..."))) (re.++ (re.+ (re.* (str.to_re "//"))) (re.++ (re.* (re.* (str.to_re "::"))) (re.++ (re.union (re.union (str.to_re ";;") (str.to_re "<<<")) (re.union (str.to_re "=") (str.to_re ">>>"))) (re.++ (re.+ (re.+ (str.to_re "???"))) (re.++ (re.* (re.+ (str.to_re "@@"))) (re.++ (re.union (re.union (str.to_re "[[") (str.to_re "\\\\\\")) (re.union (str.to_re "]]]") (str.to_re "^^"))) (re.++ (re.union (re.* (str.to_re "_")) (re.* (str.to_re "``"))) (re.++ (re.+ (re.* (str.to_re "{{"))) (re.++ (re.+ (re.* (str.to_re "|||"))) (re.++ (re.+ (re.union (str.to_re "}}}") (str.to_re "~~"))) (re.++ (re.+ (re.+ (str.to_re "000"))) (re.++ (re.+ (re.* (str.to_re "1"))) (re.++ (re.+ (re.union (str.to_re "222") (str.to_re "3"))) (re.++ (re.union (re.+ (str.to_re "444")) (re.+ (str.to_re "5"))) (re.++ (re.union (re.* (str.to_re "6")) (re.* (str.to_re "777"))) (re.++ (re.union (re.union (str.to_re "88") (str.to_re "999")) (re.union (str.to_re "a") (str.to_re "bbb"))) (re.++ (re.* (re.* (str.to_re "cc"))) (re.++ (re.+ (re.* (str.to_re "ddd"))) (re.++ (re.* (re.* (str.to_re "eee"))) (re.++ (re.+ (re.union (str.to_re "f") (str.to_re "g"))) (re.++ (re.* (re.+ (str.to_re "h"))) (re.++ (re.union (re.union (str.to_re "iii") (str.to_re "jj")) (re.union (str.to_re "kk") (str.to_re "l"))) (re.++ (re.+ (re.union (str.to_re "mmm") (str.to_re "nnn"))) (re.++ (re.* (re.* (str.to_re "o"))) (re.++ (re.union (re.+ (str.to_re "ppp")) (re.+ (str.to_re "qq"))) (re.++ (re.+ (re.* (str.to_re "r"))) (re.++ (re.union (re.* (str.to_re "ss")) (re.* (str.to_re "t"))) (re.++ (re.+ (re.+ (str.to_re "uu"))) (re.++ (re.+ (re.* (str.to_re "vvv"))) (re.++ (re.* (re.* (str.to_re "www"))) (re.++ (re.+ (re.+ (str.to_re "xxx"))) (re.++ (re.* (re.* (str.to_re "yy"))) (re.++ (re.union (re.union (str.to_re "zz") (str.to_re "AA")) (re.union (str.to_re "BB") (str.to_re "CC"))) (re.++ (re.+ (re.* (str.to_re "DDD"))) (re.++ (re.* (re.* (str.to_re "EE"))) (re.++ (re.* (re.union (str.to_re "FF") (str.to_re "GG"))) (re.++ (re.* (re.* (str.to_re "H"))) (re.++ (re.* (re.union (str.to_re "II") (str.to_re "JJ"))) (re.++ (re.* (re.+ (str.to_re "KK"))) (re.++ (re.union (re.union (str.to_re "L") (str.to_re "MMM")) (re.union (str.to_re "NN") (str.to_re "OOO"))) (re.* (re.+ (str.to_re "P"))))))))))))))))))))))))))))))))))))))))))))))))))))))))))))))))))))))))))))))))))))))
(check-sat)